db/data/11633096022713236521684430517165501319.z3.out
-------------------
2500.159898090
